DATASET = "thpack6";
INSTANCE = "010";

WIDTH = 233;
HEIGHT = 220;
LENGTH = 587;

NO_OF_SHAPES = 15;
size = [|
  68,66,31 |
  120,34,26 |
  95,76,60 |
  61,47,34 |
  53,45,36 |
  80,52,42 |
  109,63,28 |
  74,64,35 |
  53,40,36 |
  102,96,59 |
  64,60,47 |
  99,90,32 |
  76,50,43 |
  90,75,25 |
  94,65,37 |
|];

verticality = [|
  0,0,1 |
  0,1,1 |
  1,1,1 |
  1,1,1 |
  1,1,1 |
  1,1,1 |
  0,0,1 |
  0,1,1 |
  1,1,1 |
  1,1,1 |
  1,1,1 |
  0,0,1 |
  1,1,1 |
  0,0,1 |
  0,1,1 |
|];

box_count = [
  10,
  6,
  12,
  11,
  7,
  9,
  6,
  13,
  10,
  9,
  7,
  7,
  10,
  15,
  12,
];
